111 192 175 26 102 149 170 85 47 150 68 174 90 43 79 154 121 117 166 145 93 178 41 20 95 14 110 197 146 28 191 87 118 187 124 3 109 108 7 27 133 98 169 11 97 29 62 141 162 81 122 12 37 179 61 72 106 160 88 63 78 16 6 24 199 58 176 76 99 186 173 115 84 74 96 71 30 45 59 75 165 46 120 56 131 168 148 2 185 159 18 103 195 92 10 5 32 22 125 190 13 164 107 4 161 198 94 157 70 114 49 100 60 82 140 73 69 0 153 134 143 54 152 139 44 25 123 38 127 194 155 180 23 17 104 136 67 184 36 147 83 55 39 101 33 113 130 40 52 91 158 172 66 177 8 1 86 167 65 171 137 142 89 9 129 138 151 35 132 42 119 182 112 181 196 77 57 144 50 105 15 19 183 34 135 189 64 116 21 163 156 188 193 128 51 126 53 31 48 80 

